NAME Hydrovalley
ROWS
 N  OBJ
 E  AR_model_1[0]
 E  AR_model_1[1]
 E  AR_model_1[2]
 E  AR_model_1[3]
 E  AR_model_1[4]
 E  AR_model_1[5]
 E  AR_model_1[6]
 E  AR_model_1[7]
 E  AR_model_1[8]
 E  balance[0]
 E  balance[1]
 E  balance[2]
 E  balance[3]
 E  balance[4]
 E  balance[5]
 E  balance[6]
 E  balance[7]
 E  balance[8]
 E  generationCtr
 E  outflowCtr[0]
 E  outflowCtr[1]
 E  outflowCtr[2]
 E  outflowCtr[3]
 E  outflowCtr[4]
 E  outflowCtr[5]
 E  outflowCtr[6]
 E  outflowCtr[7]
 E  outflowCtr[8]
 L  dispatchCtr[0]
 L  dispatchCtr[1]
 L  dispatchCtr[2]
 L  dispatchCtr[3]
 L  dispatchCtr[4]
 L  dispatchCtr[5]
 L  dispatchCtr[6]
 L  dispatchCtr[7]
 L  dispatchCtr[8]
 G  dro_dual_ctr[0]
 G  dro_dual_ctr[1]
 G  cut[1,0,0]
 G  cut[1,0,1]
 G  cut[1,1,0]
 G  cut[1,1,1]
 G  cut[1,2,0]
 G  cut[1,2,1]
 G  cut[1,3,0]
 G  cut[1,3,1]
 G  cut[1,4,0]
 G  cut[1,4,1]
 L  norm_dro_ctr
COLUMNS
    reservoir_level[0]  balance[0]  1
    reservoir_level[0]  cut[1,0,0]  9.9999999998163946e+02
    reservoir_level[0]  cut[1,0,1]  9.9999999999440695e+02
    reservoir_level[0]  cut[1,1,0]  1.0000000000062128e+03
    reservoir_level[0]  cut[1,1,1]  1.0000000000003262e+03
    reservoir_level[0]  cut[1,2,0]  1.0000000000149529e+03
    reservoir_level[0]  cut[1,2,1]  9.9999999999635679e+02
    reservoir_level[0]  cut[1,3,0]  9.9999999971999694e+02
    reservoir_level[0]  cut[1,3,1]  9.9999999979881306e+02
    reservoir_level[0]  cut[1,4,0]  9.9999999931259572e+02
    reservoir_level[0]  cut[1,4,1]  9.9999999951309712e+02
    reservoir_level[1]  balance[1]  1
    reservoir_level[1]  cut[1,0,0]  9.9899999819584730e+02
    reservoir_level[1]  cut[1,0,1]  9.9815200015058872e+02
    reservoir_level[1]  cut[1,1,0]  9.9899999969625537e+02
    reservoir_level[1]  cut[1,1,1]  9.9815200048115037e+02
    reservoir_level[1]  cut[1,2,0]  9.9900000289098557e+02
    reservoir_level[1]  cut[1,2,1]  9.9815200044545691e+02
    reservoir_level[1]  cut[1,3,0]  9.9779999873349027e+02
    reservoir_level[1]  cut[1,3,1]  9.9779999897265327e+02
    reservoir_level[1]  cut[1,4,0]  9.9799999723688734e+02
    reservoir_level[1]  cut[1,4,1]  9.9799999803322282e+02
    reservoir_level[2]  balance[2]  1
    reservoir_level[2]  cut[1,0,0]  9.9699999463101676e+02
    reservoir_level[2]  cut[1,0,1]  9.9630400003842988e+02
    reservoir_level[2]  cut[1,1,0]  9.9699999931017408e+02
    reservoir_level[2]  cut[1,1,1]  9.9630399940334610e+02
    reservoir_level[2]  cut[1,2,0]  9.9700000862772481e+02
    reservoir_level[2]  cut[1,2,1]  9.9630400033055605e+02
    reservoir_level[2]  cut[1,3,0]  9.9559999776107747e+02
    reservoir_level[2]  cut[1,3,1]  9.9559999815457832e+02
    reservoir_level[2]  cut[1,4,0]  9.9579999504196314e+02
    reservoir_level[2]  cut[1,4,1]  9.9599999655493491e+02
    reservoir_level[3]  balance[3]  1
    reservoir_level[3]  cut[1,0,0]  9.9499999106684493e+02
    reservoir_level[3]  cut[1,0,1]  9.9445600044655032e+02
    reservoir_level[3]  cut[1,1,0]  9.9499999892323774e+02
    reservoir_level[3]  cut[1,1,1]  9.9445600004181972e+02
    reservoir_level[3]  cut[1,2,0]  9.9500001436910100e+02
    reservoir_level[3]  cut[1,2,1]  9.9445600052222358e+02
    reservoir_level[3]  cut[1,3,0]  9.9339999680616074e+02
    reservoir_level[3]  cut[1,3,1]  9.9339999734578328e+02
    reservoir_level[3]  cut[1,4,0]  4.2796376086819743e+02
    reservoir_level[3]  cut[1,4,1]  4.2842750915130915e+02
    reservoir_level[4]  balance[4]  1
    reservoir_level[4]  cut[1,0,0]  9.9361602179878309e+02
    reservoir_level[4]  cut[1,0,1]  9.9326400225596387e+02
    reservoir_level[4]  cut[1,1,0]  9.9299999851888265e+02
    reservoir_level[4]  cut[1,1,1]  9.9275999995052598e+02
    reservoir_level[4]  cut[1,2,0]  9.9300002011199228e+02
    reservoir_level[4]  cut[1,2,1]  9.9276000276814943e+02
    reservoir_level[4]  cut[1,3,0]  9.9119999589071199e+02
    reservoir_level[4]  cut[1,3,1]  9.9119999655783386e+02
    reservoir_level[4]  cut[1,4,0]  4.2576375936682376e+02
    reservoir_level[4]  cut[1,4,1]  4.2622750806849365e+02
    reservoir_level[5]  balance[5]  1
    reservoir_level[5]  cut[1,0,0]  9.9161601821280601e+02
    reservoir_level[5]  cut[1,0,1]  9.9126400158494221e+02
    reservoir_level[5]  cut[1,1,0]  9.9091199532509643e+02
    reservoir_level[5]  cut[1,1,1]  9.9076000001597811e+02
    reservoir_level[5]  cut[1,2,0]  9.9091198356578650e+02
    reservoir_level[5]  cut[1,2,1]  9.9076000049270215e+02
    reservoir_level[5]  cut[1,3,0]  9.8935461682913967e+02
    reservoir_level[5]  cut[1,3,1]  9.8935461764105298e+02
    reservoir_level[5]  cut[1,4,0]  8.0000055051224752e+00
    reservoir_level[5]  cut[1,4,1]  4.0000019695911888e+00
    reservoir_level[6]  balance[6]  1
    reservoir_level[6]  cut[1,0,0]  9.8941601424540465e+02
    reservoir_level[6]  cut[1,0,1]  9.8906400082839627e+02
    reservoir_level[6]  cut[1,1,0]  9.8891199706433213e+02
    reservoir_level[6]  cut[1,1,1]  9.8891199996948251e+02
    reservoir_level[6]  cut[1,2,0]  9.8891199469793776e+02
    reservoir_level[6]  cut[1,2,1]  9.8891200066942997e+02
    reservoir_level[6]  cut[1,3,0]  3.0000007236458495e+00
    reservoir_level[6]  cut[1,3,1]  3.0000007784293810e+00
    reservoir_level[6]  cut[1,4,0]  6.0000041276182881e+00
    reservoir_level[6]  cut[1,4,1]  3.0000014771201546e+00
    reservoir_level[7]  balance[7]  1
    reservoir_level[7]  cut[1,0,0]  9.8721601018230535e+02
    reservoir_level[7]  cut[1,0,1]  9.8706399999781104e+02
    reservoir_level[7]  cut[1,1,0]  9.8706400156581196e+02
    reservoir_level[7]  cut[1,1,1]  9.8706400007477339e+02
    reservoir_level[7]  cut[1,2,0]  8.9072951749710927e-09
    reservoir_level[7]  cut[1,2,1]  -9.0660052646462079e-10
    reservoir_level[7]  cut[1,3,0]  2.0000005998083559e+00
    reservoir_level[7]  cut[1,3,1]  2.0000005477410339e+00
    reservoir_level[7]  cut[1,4,0]  4.0000027521310653e+00
    reservoir_level[7]  cut[1,4,1]  2.0000009847396893e+00
    reservoir_level[8]  balance[8]  1
    reservoir_level[8]  cut[1,0,0]  9.8521600325269503e+02
    reservoir_level[8]  cut[1,0,1]  9.8521600036927646e+02
    reservoir_level[8]  cut[1,1,0]  9.1480619609929782e-09
    reservoir_level[8]  cut[1,1,1]  1.7195460420017027e-12
    reservoir_level[8]  cut[1,2,0]  2.9994807884857984e-09
    reservoir_level[8]  cut[1,2,1]  -2.9814127726035577e-10
    reservoir_level[8]  cut[1,3,0]  1.0000002999941280e+00
    reservoir_level[8]  cut[1,3,1]  1.0000002739820628e+00
    reservoir_level[8]  cut[1,4,0]  2.0000013750360019e+00
    reservoir_level[8]  cut[1,4,1]  1.0000004923664454e+00
    reservoir_level0[0]  balance[0]  -1
    reservoir_level0[1]  balance[1]  -1
    reservoir_level0[2]  balance[2]  -1
    reservoir_level0[3]  balance[3]  -1
    reservoir_level0[4]  balance[4]  -1
    reservoir_level0[5]  balance[5]  -1
    reservoir_level0[6]  balance[6]  -1
    reservoir_level0[7]  balance[7]  -1
    reservoir_level0[8]  balance[8]  -1
    inflow[0,1]  AR_model_1[0]  1
    inflow[0,1]  cut[1,0,0]  -7.6556272645833133e+02
    inflow[0,1]  cut[1,0,1]  -7.6624586210358916e+02
    inflow[0,1]  cut[1,1,0]  -7.6556272567959422e+02
    inflow[0,1]  cut[1,1,1]  -7.6624586161813647e+02
    inflow[0,1]  cut[1,2,0]  -7.6556272276575521e+02
    inflow[0,1]  cut[1,2,1]  -7.6624586216829891e+02
    inflow[0,1]  cut[1,3,0]  -7.6446125467616662e+02
    inflow[0,1]  cut[1,3,1]  -7.6446125561301176e+02
    inflow[0,1]  cut[1,4,0]  -7.6563074115455299e+02
    inflow[0,1]  cut[1,4,1]  -7.6592342709945524e+02
    inflow[1,1]  AR_model_1[1]  1
    inflow[1,1]  cut[1,0,0]  3.2312656612831205e+02
    inflow[1,1]  cut[1,0,1]  3.2334407038214988e+02
    inflow[1,1]  cut[1,1,0]  3.2312656615523190e+02
    inflow[1,1]  cut[1,1,1]  3.2334407014732273e+02
    inflow[1,1]  cut[1,2,0]  3.2312656568034197e+02
    inflow[1,1]  cut[1,2,1]  3.2334407042749297e+02
    inflow[1,1]  cut[1,3,0]  3.2260085520224527e+02
    inflow[1,1]  cut[1,3,1]  3.2260085559056608e+02
    inflow[1,1]  cut[1,4,0]  3.0595712471360355e+02
    inflow[1,1]  cut[1,4,1]  3.0609313918409731e+02
    inflow[2,1]  AR_model_1[2]  1
    inflow[2,1]  cut[1,0,0]  1.3149295296847358e+03
    inflow[2,1]  cut[1,0,1]  1.3142761484241323e+03
    inflow[2,1]  cut[1,1,0]  1.3149295365478310e+03
    inflow[2,1]  cut[1,1,1]  1.3142761478416346e+03
    inflow[2,1]  cut[1,2,0]  1.3149295498918150e+03
    inflow[2,1]  cut[1,2,1]  1.3142761486643012e+03
    inflow[2,1]  cut[1,3,0]  1.3129637464360001e+03
    inflow[2,1]  cut[1,3,1]  1.3129637471344797e+03
    inflow[2,1]  cut[1,4,0]  7.4793068731592120e+02
    inflow[2,1]  cut[1,4,1]  7.4845858198686801e+02
    inflow[3,1]  AR_model_1[3]  1
    inflow[3,1]  cut[1,0,0]  -6.4926645033549107e+01
    inflow[3,1]  cut[1,0,1]  -6.4997498993522981e+01
    inflow[3,1]  cut[1,1,0]  -6.5141654143389815e+01
    inflow[3,1]  cut[1,1,1]  -6.5173408917733184e+01
    inflow[3,1]  cut[1,2,0]  -6.5141648009498510e+01
    inflow[3,1]  cut[1,2,1]  -6.5173408093555565e+01
    inflow[3,1]  cut[1,3,0]  -6.5167842640677861e+01
    inflow[3,1]  cut[1,3,1]  -6.5167842702768326e+01
    inflow[3,1]  cut[1,4,0]  2.1131439916988057e+01
    inflow[3,1]  cut[1,4,1]  2.1629116170847865e+01
    inflow[4,1]  AR_model_1[4]  1
    inflow[4,1]  cut[1,0,0]  -1.3750378776049333e+03
    inflow[4,1]  cut[1,0,1]  -1.3748824587482923e+03
    inflow[4,1]  cut[1,1,0]  -1.3747004137801473e+03
    inflow[4,1]  cut[1,1,1]  -1.3746599355982803e+03
    inflow[4,1]  cut[1,2,0]  -1.3747003982762863e+03
    inflow[4,1]  cut[1,2,1]  -1.3746599354360701e+03
    inflow[4,1]  cut[1,3,0]  -1.0736917340491807e+03
    inflow[4,1]  cut[1,3,1]  -1.0736917349996011e+03
    inflow[4,1]  cut[1,4,0]  5.6563648023175602e+01
    inflow[4,1]  cut[1,4,1]  6.2530015984161949e+01
    inflow[5,1]  AR_model_1[5]  1
    inflow[5,1]  cut[1,0,0]  -1.6971970408185348e+02
    inflow[5,1]  cut[1,0,1]  -1.6969177525333271e+02
    inflow[5,1]  cut[1,1,0]  -1.6969709611421553e+02
    inflow[5,1]  cut[1,1,1]  -1.6971030555543942e+02
    inflow[5,1]  cut[1,2,0]  -1.2008352325773922e+02
    inflow[5,1]  cut[1,2,1]  -1.2009673218315969e+02
    inflow[5,1]  cut[1,3,0]  1.3115281371452159e+02
    inflow[5,1]  cut[1,3,1]  1.3115281380354182e+02
    inflow[5,1]  cut[1,4,0]  -6.6433303765357321e-01
    inflow[5,1]  cut[1,4,1]  -3.3216645396162814e-01
    inflow[6,1]  AR_model_1[6]  1
    inflow[6,1]  cut[1,0,0]  1.2297042393825373e+03
    inflow[6,1]  cut[1,0,1]  1.2295967267186224e+03
    inflow[6,1]  cut[1,1,0]  9.0707732163019273e+02
    inflow[6,1]  cut[1,1,1]  9.0707732078397248e+02
    inflow[6,1]  cut[1,2,0]  7.5659689819024436e+01
    inflow[6,1]  cut[1,2,1]  7.5659690085079234e+01
    inflow[6,1]  cut[1,3,0]  2.2415046602891477e+00
    inflow[6,1]  cut[1,3,1]  2.2415045857519793e+00
    inflow[6,1]  cut[1,4,0]  4.4830110177134728e+00
    inflow[6,1]  cut[1,4,1]  2.2415050704264772e+00
    inflow[7,1]  AR_model_1[7]  1
    inflow[7,1]  cut[1,0,0]  1.1893222139037748e+03
    inflow[7,1]  cut[1,0,1]  1.1892579845161797e+03
    inflow[7,1]  cut[1,1,0]  5.7066496237424076e+02
    inflow[7,1]  cut[1,1,1]  5.7066496170075925e+02
    inflow[7,1]  cut[1,2,0]  4.7659827146973176e-09
    inflow[7,1]  cut[1,2,1]  -4.8270039162987531e-10
    inflow[7,1]  cut[1,3,0]  1.7841637570902620e+00
    inflow[7,1]  cut[1,3,1]  1.7841636903418729e+00
    inflow[7,1]  cut[1,4,0]  3.5683288446243675e+00
    inflow[7,1]  cut[1,4,1]  1.7841640735222832e+00
    inflow[8,1]  AR_model_1[8]  1
    inflow[8,1]  cut[1,0,0]  -2.6974411827347700e+02
    inflow[8,1]  cut[1,0,1]  -2.6974411762122281e+02
    inflow[8,1]  cut[1,1,0]  -2.0946822662883194e-09
    inflow[8,1]  cut[1,1,1]  -3.9373395322480601e-13
    inflow[8,1]  cut[1,2,0]  -6.8680768041406256e-10
    inflow[8,1]  cut[1,2,1]  6.8267054703904586e-11
    inflow[8,1]  cut[1,3,0]  -2.7379193847622574e-01
    inflow[8,1]  cut[1,3,1]  -2.7379193134568097e-01
    inflow[8,1]  cut[1,4,0]  -5.4758408910323997e-01
    inflow[8,1]  cut[1,4,1]  -2.7379199113853447e-01
    inflow0[0,1]  AR_model_1[0]  -5.2627596973061597e-01
    inflow0[0,1]  AR_model_1[1]  4.5794849298019724e-01
    inflow0[0,1]  balance[0]  -5.2627596973061597e-01
    inflow0[0,1]  balance[1]  4.5794849298019724e-01
    inflow0[1,1]  AR_model_1[1]  1.9932696846149303e-01
    inflow0[1,1]  AR_model_1[2]  -2.7814640873614449e-01
    inflow0[1,1]  balance[1]  1.9932696846149303e-01
    inflow0[1,1]  balance[2]  -2.7814640873614449e-01
    inflow0[2,1]  AR_model_1[2]  -4.8333159082254307e-01
    inflow0[2,1]  AR_model_1[3]  -2.7774089637188454e-01
    inflow0[2,1]  balance[2]  -4.8333159082254307e-01
    inflow0[2,1]  balance[3]  -2.7774089637188454e-01
    inflow0[3,1]  AR_model_1[3]  7.8426922533851540e-01
    inflow0[3,1]  AR_model_1[4]  -1.2946279459081497e-01
    inflow0[3,1]  balance[3]  7.8426922533851540e-01
    inflow0[3,1]  balance[4]  -1.2946279459081497e-01
    inflow0[4,1]  AR_model_1[4]  -5.0725991124393310e-01
    inflow0[4,1]  AR_model_1[5]  3.0382424380817785e-01
    inflow0[4,1]  balance[4]  -5.0725991124393310e-01
    inflow0[4,1]  balance[5]  3.0382424380817785e-01
    inflow0[5,1]  AR_model_1[5]  -7.4731644953292403e-03
    inflow0[5,1]  AR_model_1[6]  -5.0014897467001374e-01
    inflow0[5,1]  balance[5]  -7.4731644953292403e-03
    inflow0[5,1]  balance[6]  -5.0014897467001374e-01
    inflow0[6,1]  AR_model_1[6]  6.2326734978169396e-01
    inflow0[6,1]  AR_model_1[7]  1.6733330771846355e-02
    inflow0[6,1]  balance[6]  6.2326734978169396e-01
    inflow0[6,1]  balance[7]  1.6733330771846355e-02
    inflow0[7,1]  AR_model_1[7]  5.4557222385854393e-02
    inflow0[7,1]  AR_model_1[8]  -4.4225055342959518e-01
    inflow0[7,1]  balance[7]  5.4557222385854393e-02
    inflow0[7,1]  balance[8]  -4.4225055342959518e-01
    inflow0[8,1]  AR_model_1[8]  -9.6636059345956660e-01
    inflow0[8,1]  balance[8]  -9.6636059345956660e-01
    innovations[0]  AR_model_1[0]  -1
    innovations[0]  balance[0]  -1
    innovations[1]  AR_model_1[1]  -1
    innovations[1]  balance[1]  -1
    innovations[2]  AR_model_1[2]  -1
    innovations[2]  balance[2]  -1
    innovations[3]  AR_model_1[3]  -1
    innovations[3]  balance[3]  -1
    innovations[4]  AR_model_1[4]  -1
    innovations[4]  balance[4]  -1
    innovations[5]  AR_model_1[5]  -1
    innovations[5]  balance[5]  -1
    innovations[6]  AR_model_1[6]  -1
    innovations[6]  balance[6]  -1
    innovations[7]  AR_model_1[7]  -1
    innovations[7]  balance[7]  -1
    innovations[8]  AR_model_1[8]  -1
    innovations[8]  balance[8]  -1
    outflow[0]  balance[0]  1
    outflow[0]  balance[1]  -1
    outflow[0]  outflowCtr[0]  1
    outflow[1]  balance[1]  1
    outflow[1]  balance[2]  -1
    outflow[1]  outflowCtr[1]  1
    outflow[2]  balance[2]  1
    outflow[2]  balance[3]  -1
    outflow[2]  outflowCtr[2]  1
    outflow[3]  balance[3]  1
    outflow[3]  balance[4]  -1
    outflow[3]  outflowCtr[3]  1
    outflow[4]  balance[4]  1
    outflow[4]  balance[5]  -1
    outflow[4]  outflowCtr[4]  1
    outflow[5]  balance[5]  1
    outflow[5]  balance[6]  -1
    outflow[5]  outflowCtr[5]  1
    outflow[6]  balance[6]  1
    outflow[6]  balance[7]  -1
    outflow[6]  outflowCtr[6]  1
    outflow[7]  balance[7]  1
    outflow[7]  balance[8]  -1
    outflow[7]  outflowCtr[7]  1
    outflow[8]  balance[8]  1
    outflow[8]  outflowCtr[8]  1
    spill[0]  balance[0]  1
    spill[0]  balance[1]  -1
    spill[1]  balance[1]  1
    spill[1]  balance[2]  -1
    spill[2]  balance[2]  1
    spill[2]  balance[3]  -1
    spill[3]  balance[3]  1
    spill[3]  balance[4]  -1
    spill[4]  balance[4]  1
    spill[4]  balance[5]  -1
    spill[5]  balance[5]  1
    spill[5]  balance[6]  -1
    spill[6]  balance[6]  1
    spill[6]  balance[7]  -1
    spill[7]  balance[7]  1
    spill[7]  balance[8]  -1
    spill[8]  balance[8]  1
    pour[0]   OBJ       1000
    pour[0]   balance[0]  -1
    pour[1]   OBJ       1000
    pour[1]   balance[1]  -1
    pour[2]   OBJ       1000
    pour[2]   balance[2]  -1
    pour[3]   OBJ       1000
    pour[3]   balance[3]  -1
    pour[4]   OBJ       1000
    pour[4]   balance[4]  -1
    pour[5]   OBJ       1000
    pour[5]   balance[5]  -1
    pour[6]   OBJ       1000
    pour[6]   balance[6]  -1
    pour[7]   OBJ       1000
    pour[7]   balance[7]  -1
    pour[8]   OBJ       1000
    pour[8]   balance[8]  -1
    generation  OBJ       -1.72
    generation  generationCtr  1
    dispatch[0,0]  generationCtr  -55
    dispatch[0,0]  outflowCtr[0]  -50
    dispatch[0,0]  dispatchCtr[0]  1
    dispatch[0,1]  generationCtr  -65
    dispatch[0,1]  outflowCtr[0]  -60
    dispatch[0,1]  dispatchCtr[0]  1
    dispatch[0,2]  generationCtr  -70
    dispatch[0,2]  outflowCtr[0]  -70
    dispatch[0,2]  dispatchCtr[0]  1
    dispatch[1,0]  generationCtr  -55
    dispatch[1,0]  outflowCtr[1]  -50
    dispatch[1,0]  dispatchCtr[1]  1
    dispatch[1,1]  generationCtr  -65
    dispatch[1,1]  outflowCtr[1]  -60
    dispatch[1,1]  dispatchCtr[1]  1
    dispatch[1,2]  generationCtr  -70
    dispatch[1,2]  outflowCtr[1]  -70
    dispatch[1,2]  dispatchCtr[1]  1
    dispatch[2,0]  generationCtr  -55
    dispatch[2,0]  outflowCtr[2]  -50
    dispatch[2,0]  dispatchCtr[2]  1
    dispatch[2,1]  generationCtr  -65
    dispatch[2,1]  outflowCtr[2]  -60
    dispatch[2,1]  dispatchCtr[2]  1
    dispatch[2,2]  generationCtr  -70
    dispatch[2,2]  outflowCtr[2]  -70
    dispatch[2,2]  dispatchCtr[2]  1
    dispatch[3,0]  generationCtr  -55
    dispatch[3,0]  outflowCtr[3]  -50
    dispatch[3,0]  dispatchCtr[3]  1
    dispatch[3,1]  generationCtr  -65
    dispatch[3,1]  outflowCtr[3]  -60
    dispatch[3,1]  dispatchCtr[3]  1
    dispatch[3,2]  generationCtr  -70
    dispatch[3,2]  outflowCtr[3]  -70
    dispatch[3,2]  dispatchCtr[3]  1
    dispatch[4,0]  generationCtr  -55
    dispatch[4,0]  outflowCtr[4]  -50
    dispatch[4,0]  dispatchCtr[4]  1
    dispatch[4,1]  generationCtr  -65
    dispatch[4,1]  outflowCtr[4]  -60
    dispatch[4,1]  dispatchCtr[4]  1
    dispatch[4,2]  generationCtr  -70
    dispatch[4,2]  outflowCtr[4]  -70
    dispatch[4,2]  dispatchCtr[4]  1
    dispatch[5,0]  generationCtr  -55
    dispatch[5,0]  outflowCtr[5]  -50
    dispatch[5,0]  dispatchCtr[5]  1
    dispatch[5,1]  generationCtr  -65
    dispatch[5,1]  outflowCtr[5]  -60
    dispatch[5,1]  dispatchCtr[5]  1
    dispatch[5,2]  generationCtr  -70
    dispatch[5,2]  outflowCtr[5]  -70
    dispatch[5,2]  dispatchCtr[5]  1
    dispatch[6,0]  generationCtr  -55
    dispatch[6,0]  outflowCtr[6]  -50
    dispatch[6,0]  dispatchCtr[6]  1
    dispatch[6,1]  generationCtr  -65
    dispatch[6,1]  outflowCtr[6]  -60
    dispatch[6,1]  dispatchCtr[6]  1
    dispatch[6,2]  generationCtr  -70
    dispatch[6,2]  outflowCtr[6]  -70
    dispatch[6,2]  dispatchCtr[6]  1
    dispatch[7,0]  generationCtr  -55
    dispatch[7,0]  outflowCtr[7]  -50
    dispatch[7,0]  dispatchCtr[7]  1
    dispatch[7,1]  generationCtr  -65
    dispatch[7,1]  outflowCtr[7]  -60
    dispatch[7,1]  dispatchCtr[7]  1
    dispatch[7,2]  generationCtr  -70
    dispatch[7,2]  outflowCtr[7]  -70
    dispatch[7,2]  dispatchCtr[7]  1
    dispatch[8,0]  generationCtr  -55
    dispatch[8,0]  outflowCtr[8]  -50
    dispatch[8,0]  dispatchCtr[8]  1
    dispatch[8,1]  generationCtr  -65
    dispatch[8,1]  outflowCtr[8]  -60
    dispatch[8,1]  dispatchCtr[8]  1
    dispatch[8,2]  generationCtr  -70
    dispatch[8,2]  outflowCtr[8]  -70
    dispatch[8,2]  dispatchCtr[8]  1
    oracle[1][0]  dro_dual_ctr[0]  -1
    oracle[1][0]  cut[1,0,0]  1
    oracle[1][0]  cut[1,1,0]  1
    oracle[1][0]  cut[1,2,0]  1
    oracle[1][0]  cut[1,3,0]  1
    oracle[1][0]  cut[1,4,0]  1
    oracle[1][1]  dro_dual_ctr[1]  -1
    oracle[1][1]  cut[1,0,1]  1
    oracle[1][1]  cut[1,1,1]  1
    oracle[1][1]  cut[1,2,1]  1
    oracle[1][1]  cut[1,3,1]  1
    oracle[1][1]  cut[1,4,1]  1
    lambda[1]  OBJ       1
    lambda[1]  dro_dual_ctr[0]  1
    lambda[1]  dro_dual_ctr[1]  1
    gamma[1]  OBJ       0.1
    nu[1][0]  OBJ       -0.5
    nu[1][0]  dro_dual_ctr[0]  -1
    nu[1][1]  OBJ       -0.5
    nu[1][1]  dro_dual_ctr[1]  -1
RHS
    RHS1      dispatchCtr[0]  1
    RHS1      dispatchCtr[1]  1
    RHS1      dispatchCtr[2]  1
    RHS1      dispatchCtr[3]  1
    RHS1      dispatchCtr[4]  1
    RHS1      dispatchCtr[5]  1
    RHS1      dispatchCtr[6]  1
    RHS1      dispatchCtr[7]  1
    RHS1      dispatchCtr[8]  1
    RHS1      cut[1,0,0]  8.4786833337661068e+04
    RHS1      cut[1,0,1]  7.2460511425679404e+04
    RHS1      cut[1,1,0]  7.4618549404592442e+04
    RHS1      cut[1,1,1]  6.2501042470073939e+04
    RHS1      cut[1,2,0]  7.0263232084650444e+04
    RHS1      cut[1,2,1]  5.8204144615373480e+04
    RHS1      cut[1,3,0]  5.0988555534971660e+04
    RHS1      cut[1,3,1]  4.1292228776552998e+04
    RHS1      cut[1,4,0]  2.0726534441644020e+04
    RHS1      cut[1,4,1]  1.9737455984116841e+04
BOUNDS
 UP BND1      reservoir_level[0]  200
 UP BND1      reservoir_level[1]  200
 UP BND1      reservoir_level[2]  200
 UP BND1      reservoir_level[3]  200
 UP BND1      reservoir_level[4]  200
 UP BND1      reservoir_level[5]  200
 UP BND1      reservoir_level[6]  200
 UP BND1      reservoir_level[7]  200
 UP BND1      reservoir_level[8]  200
 FX BND1      reservoir_level0[0]  9.3206822988133116e+00
 FX BND1      reservoir_level0[1]  2.5558847019258874e+01
 FX BND1      reservoir_level0[2]  4.6878353992694730e-06
 FX BND1      reservoir_level0[3]  2.9304861260290490e+01
 FX BND1      reservoir_level0[4]  7.7247899428247564e+01
 FX BND1      reservoir_level0[5]  2.7166778899313595e+01
 FX BND1      reservoir_level0[6]  2.0410785675068752e+01
 FX BND1      reservoir_level0[7]  7.8248316481591553e+00
 FX BND1      reservoir_level0[8]  1.1400255965381545e+01
 FR BND1      inflow[0,1]
 FR BND1      inflow[1,1]
 FR BND1      inflow[2,1]
 FR BND1      inflow[3,1]
 FR BND1      inflow[4,1]
 FR BND1      inflow[5,1]
 FR BND1      inflow[6,1]
 FR BND1      inflow[7,1]
 FR BND1      inflow[8,1]
 FX BND1      inflow0[0,1]  9.7903881993393753e+00
 FX BND1      inflow0[1,1]  8.8123224633892701e+00
 FX BND1      inflow0[2,1]  6.2768192146397519e+00
 FX BND1      inflow0[3,1]  9.3048653340266565e+00
 FX BND1      inflow0[4,1]  7.2478995310243892e+00
 FX BND1      inflow0[5,1]  7.1667788605535616e+00
 FX BND1      inflow0[6,1]  4.1078566584183851e-01
 FX BND1      inflow0[7,1]  4.3948177516747489e+00
 FX BND1      inflow0[8,1]  2.8206978311608779e+00
 FX BND1      innovations[0]  -5.1430701643889227e+00
 FX BND1      innovations[1]  -1.2130004660248757e+00
 FX BND1      innovations[2]  -3.6150897248412389e-02
 FX BND1      innovations[3]  -1.5173592104671760e+00
 FX BND1      innovations[4]  -1.0996934612864155e+00
 FX BND1      innovations[5]  -5.3536926178154403e+00
 FX BND1      innovations[6]  -5.4058285666418922e+00
 FX BND1      innovations[7]  -1.0357993776637466e+00
 FX BND1      innovations[8]  -4.1987278792895539e+00
 UP BND1      dispatch[0,0]  1
 UP BND1      dispatch[0,1]  1
 UP BND1      dispatch[0,2]  1
 UP BND1      dispatch[1,0]  1
 UP BND1      dispatch[1,1]  1
 UP BND1      dispatch[1,2]  1
 UP BND1      dispatch[2,0]  1
 UP BND1      dispatch[2,1]  1
 UP BND1      dispatch[2,2]  1
 UP BND1      dispatch[3,0]  1
 UP BND1      dispatch[3,1]  1
 UP BND1      dispatch[3,2]  1
 UP BND1      dispatch[4,0]  1
 UP BND1      dispatch[4,1]  1
 UP BND1      dispatch[4,2]  1
 UP BND1      dispatch[5,0]  1
 UP BND1      dispatch[5,1]  1
 UP BND1      dispatch[5,2]  1
 UP BND1      dispatch[6,0]  1
 UP BND1      dispatch[6,1]  1
 UP BND1      dispatch[6,2]  1
 UP BND1      dispatch[7,0]  1
 UP BND1      dispatch[7,1]  1
 UP BND1      dispatch[7,2]  1
 UP BND1      dispatch[8,0]  1
 UP BND1      dispatch[8,1]  1
 UP BND1      dispatch[8,2]  1
 LO BND1      oracle[1][0]  -100000
 LO BND1      oracle[1][1]  -100000
 FR BND1      lambda[1]
 FR BND1      nu[1][0]
 FR BND1      nu[1][1]
QCMATRIX   norm_dro_ctr
    gamma[1]  gamma[1]  -1
    nu[1][0]  nu[1][0]  1
    nu[1][1]  nu[1][1]  1
ENDATA
